\* Problem: medoc1 *\

Maximize
 profit: + 15 x1 + 20 x2 + 4 x3 + 20 x4

Subject To
 Toxine1: + 20 x1 + 20 x2 + 10 x3 + 40 x4 <= 21
 Toxine2: + 10 x1 + 30 x2 + 20 x3 <= 6
 Toxine3: + 20 x1 + 40 x2 + 30 x3 + 10 x4 <= 14

End
